z3_origin/1599121903168735000.txt
sat
(:max-memory          19.02
 :memory              18.42
 :nlsat-arith-var     2
 :nlsat-atoms         18
 :nlsat-bool-var      3
 :nlsat-clauses       7
 :nlsat-conflicts     4
 :nlsat-decisions     2
 :nlsat-propagations  30
 :nlsat-stages        7
 :num-allocs          255433
 :rlimit-count        25765
 :solve-eqs-elim-vars 2
 :solve-eqs-steps     18
 :time                0.05
 :total-time          0.06)
